h -1 -2 -3 0
h -4 5 0
h 6 -7 -8 0
h 9 -10 0
h 11 -12 0
h -13 0
h 14 -15 16 17 0
h 18 -2 4 0
h 19 0
h 20 0
h 21 3 0
h 22 23 0
h 22 -8 0
h -22 2 0
h -22 17 0
h 12 0
h 6 -7 0
h 24 -6 8 0
h 24 -18 0
1 -24 0
h 25 5 -8 0
1 -25 0
h 7 16 0
h -26 17 0
h 8 -17 0
h 8 -23 0
h 8 4 0
h 27 23 17 0
1 -27 0
h 28 -13 0
h 29 -4 16 0
1 -29 0
h 30 -31 0
h -8 -26 0
h -8 -15 0
h -8 -4 0
h 32 6 -4 0
h 33 0
h 34 -22 26 0
1 -34 0
h 35 22 -6 0
h 36 3 0
h 37 -5 16 0
1 -37 0
h 38 -18 -2 0
1 -38 0
h 39 22 16 0
h 22 14 0
h -16 15 0
h -16 26 0
h -16 -6 0
